benchmark_str_length/p2_10_3-2.dzn
Alphabet = {A,C,G,T};
ns = 10;
nc = 3;
sl = 10;
neighbours = [| Null,Null,Null | I(A),Null,Null | I(C),Null,Null | I(C),I(G),I(C) | I(T),Null,Null | I(G),I(T),I(C) | Null,Null,Null | I(A),I(A),I(C) | I(G),I(A),Null | I(G),Null,Null |];
